128 74
75 28 112 37 70 84 101 90 123 32 9 17 89 66 68 65 55 94 13 10 3 58 72 127 117 60 87 78 57 43 104 8 120 125 119 103 80 11 56 93 22 85 69 45 36 51 86 30 52 25 62 6 54 2 35 53 79 24 76 61 47 122 99 124 49 98 121 1 33 74 34 107 42 115 41 71 105 108 106 97 113 48 44 21 16 73 118 102 64 4 95 116 91 114 63 31 109 100 26 126 15 40 27 128 23 14 19 59 67 81 46 7 38 96 39 18 20 29 88 77 50 92 83 82 110 12 5 111 
